This is Ipopt version 3.14.16, running with linear solver MUMPS 5.7.3.

Number of nonzeros in equality constraint Jacobian...:        0
Number of nonzeros in inequality constraint Jacobian.:       36
Number of nonzeros in Lagrangian Hessian.............:        0

Total number of variables............................:        4
                     variables with only lower bounds:        0
                variables with lower and upper bounds:        4
                     variables with only upper bounds:        0
Total number of equality constraints.................:        0
Total number of inequality constraints...............:        9
        inequality constraints with only lower bounds:        9
   inequality constraints with lower and upper bounds:        0
        inequality constraints with only upper bounds:        0

iter    objective    inf_pr   inf_du lg(mu)  ||d||  lg(rg) alpha_du alpha_pr  ls
   0  1.9380800e+01 4.59e+00 1.35e+00   0.0 0.00e+00    -  0.00e+00 0.00e+00   0
   1  1.9410144e+01 4.58e+00 6.24e+01  -0.4 4.80e+01    -  6.25e-01 1.40e-02h  1
   2  2.0012644e+01 4.43e+00 5.17e+02   0.1 3.13e+02    -  7.49e-01 3.28e-02f  3
   3  2.1359973e+01 4.09e+00 1.98e+03   1.1 2.05e+02    -  1.00e+00 7.56e-02f  2
   4  2.1694272e+01 4.01e+00 3.08e+03   1.1 9.75e+01    -  2.88e-01 2.04e-02h  4
   5  2.2361419e+01 3.84e+00 1.03e+04   1.1 8.41e+01    -  9.23e-01 4.17e-02h  3
   6  2.2996405e+01 3.68e+00 1.98e+04   1.1 6.43e+01    -  3.47e-01 4.15e-02h  3
   7  2.4159239e+01 3.39e+00 8.21e+04   1.1 5.12e+01    -  1.00e+00 7.93e-02h  2
   8  2.5772384e+01 2.99e+00 2.23e+05   1.1 3.50e+01    -  4.93e-01 1.20e-01h  1
   9  2.5797966e+01 2.98e+00 6.32e+07   1.1 1.88e+01    -  1.00e+00 2.31e-03h  1
iter    objective    inf_pr   inf_du lg(mu)  ||d||  lg(rg) alpha_du alpha_pr  ls
  10  2.5800059e+01 2.98e+00 1.43e+11   1.1 9.73e+00    -  1.00e+00 4.32e-04h  1
  11r 2.5800059e+01 2.98e+00 1.00e+03   1.1 0.00e+00    -  0.00e+00 4.14e-07R  6
  12r 3.5481009e+01 1.32e+00 1.62e+03   3.2 2.01e+03    -  5.41e-01 8.60e-03f  1
  13  3.5550621e+01 1.32e+00 2.76e+02   0.4 5.50e+00    -  1.00e+00 1.10e-02h  1
  14  3.5518488e+01 1.29e+00 9.65e+03   0.4 1.27e+01    -  1.00e+00 2.46e-02h  1
  15  3.5493714e+01 1.28e+00 3.05e+06   0.4 7.33e+00    -  1.00e+00 3.20e-03h  1
  16  3.5492926e+01 1.28e+00 3.42e+10   0.4 1.10e+01    -  1.00e+00 8.88e-05h  1
  17r 3.5492926e+01 1.28e+00 1.00e+03   0.4 0.00e+00    -  0.00e+00 2.55e-07R  3
  18r 3.5484075e+01 1.28e+00 9.92e+02   2.5 7.35e+02    -  2.49e-02 2.13e-03f  1
  19  3.5484304e+01 1.28e+00 2.95e+03  -0.1 1.29e+00    -  1.00e+00 5.54e-04h  1
iter    objective    inf_pr   inf_du lg(mu)  ||d||  lg(rg) alpha_du alpha_pr  ls
  20  3.5486627e+01 1.28e+00 1.99e+06  -0.9 1.98e+01    -  1.00e+00 1.21e-03h  1
  21  3.5486380e+01 1.28e+00 1.60e+09  -0.7 6.52e+01    -  1.00e+00 4.01e-05h  1
  22  3.5484655e+01 1.28e+00 8.70e+12   2.5 2.06e+03    -  1.00e+00 1.82e-04h  1
  23  3.5484655e+01 1.28e+00 8.75e+12   4.0 8.57e+08    -  4.51e-08 3.49e-09f  4
  24r 3.5484655e+01 1.28e+00 1.00e+03   4.0 0.00e+00    -  0.00e+00 4.54e-07R  3
  25r 3.4648053e+01 6.80e-01 9.91e+01   1.6 1.09e+01    -  9.50e-01 9.64e-01f  1
  26r 3.5394463e+01 1.03e+00 3.22e+02   1.7 1.69e+01    -  5.97e-01 3.97e-01f  1
  27r 3.5945656e+01 8.65e-01 1.31e+02   1.3 5.87e+00    -  1.00e+00 9.63e-01f  1
  28  3.5954595e+01 8.65e-01 5.01e+01  -1.2 8.89e-01    -  9.76e-01 2.02e-02h  1
  29  3.5951002e+01 8.65e-01 2.01e+05   0.1 1.02e+01    -  1.00e+00 2.61e-04h  1
iter    objective    inf_pr   inf_du lg(mu)  ||d||  lg(rg) alpha_du alpha_pr  ls
  30  3.6025237e+01 8.29e-01 1.87e+03   1.7 1.89e+01    -  1.00e+00 4.20e-02h  1
  31  3.6020226e+01 8.28e-01 1.82e+06   0.8 9.20e+00    -  9.78e-01 7.04e-04h  1
  32  3.6016628e+01 8.28e-01 9.92e+09   1.9 1.02e+01    -  1.00e+00 1.81e-04h  1
  33r 3.6016628e+01 8.28e-01 1.00e+03   4.0 0.00e+00    -  0.00e+00 4.58e-07R  3
  34r 3.5901962e+01 7.07e-01 2.37e+01  -2.3 1.07e+01    -  9.78e-01 9.59e-01f  1
  35r 3.5901962e+01 7.07e-01 9.99e+02  -0.2 0.00e+00    -  0.00e+00 2.93e-07R  6
  36r 3.5994405e+01 7.21e-01 9.99e+02  -5.4 1.01e+02    -  4.90e-02 9.72e-04f  1
  37r 3.6466654e+01 8.50e-01 9.32e+02   1.0 1.13e+01    -  1.00e+00 5.40e-02f  1
  38r 3.6294159e+01 8.47e-01 1.91e+02  -0.6 8.29e-02    -  1.00e+00 7.98e-01f  1
  39r 3.6219705e+01 8.82e-01 4.75e+01  -1.0 7.51e-01    -  1.00e+00 1.00e+00f  1
iter    objective    inf_pr   inf_du lg(mu)  ||d||  lg(rg) alpha_du alpha_pr  ls
  40r 3.6215144e+01 8.84e-01 1.82e+00  -2.9 2.60e-02    -  1.00e+00 9.62e-01f  1
  41r 3.6214369e+01 8.84e-01 2.22e-02  -4.5 1.19e-02    -  1.00e+00 9.95e-01f  1
  42r 3.6214360e+01 8.84e-01 2.32e-05  -6.4 2.63e-04    -  1.00e+00 9.97e-01h  1
  43r 3.6214360e+01 8.84e-01 4.26e-06  -9.0 4.73e-05    -  1.00e+00 1.00e+00h  1
  44r 3.6214360e+01 8.84e-01 1.60e-05  -9.0 2.14e-03    -  1.00e+00 1.00e+00h  1
  45r 3.6214360e+01 8.84e-01 1.27e-04  -9.0 1.45e-02    -  1.00e+00 1.00e+00h  1
  46r 3.6214360e+01 8.84e-01 2.31e-06  -9.0 2.48e-03    -  1.00e+00 1.00e+00h  1
  47r 3.6214360e+01 8.84e-01 5.03e-04  -9.0 4.46e-01    -  1.00e+00 1.00e+00h  1
  48r 3.6214360e+01 8.84e-01 4.79e-05  -9.0 3.26e-01    -  1.00e+00 1.00e+00h  1
  49r 3.6214360e+01 8.84e-01 6.31e-04  -9.0 5.24e+00    -  1.00e+00 1.00e+00h  1
iter    objective    inf_pr   inf_du lg(mu)  ||d||  lg(rg) alpha_du alpha_pr  ls
  50r 3.6214360e+01 8.84e-01 3.29e-04  -9.0 2.36e+00    -  1.00e+00 1.00e+00h  1
  51r 3.6214360e+01 8.84e-01 7.81e-05  -9.0 9.95e-02    -  1.00e+00 1.00e+00h  1
  52r 3.6214360e+01 8.84e-01 4.31e-06  -9.0 4.91e-01    -  1.00e+00 1.00e+00h  1
  53r 3.6214360e+01 8.84e-01 1.21e-05  -9.0 2.92e-01    -  1.00e+00 1.00e+00h  1
  54r 3.6214360e+01 8.84e-01 1.65e-05  -9.0 1.02e+01    -  1.00e+00 1.00e+00h  1
  55r 3.6214360e+01 8.84e-01 1.94e-06  -9.0 2.44e+00    -  1.00e+00 1.00e+00h  1
  56r 3.6214360e+01 8.84e-01 2.02e-06  -9.0 6.87e-01    -  1.00e+00 1.00e+00h  1
  57r 3.6214360e+01 8.84e-01 5.31e-06  -9.0 1.49e+00    -  1.00e+00 1.00e+00h  1
  58r 3.6214360e+01 8.84e-01 1.83e-07  -9.0 1.13e+00    -  1.00e+00 1.00e+00h  1
  59r 3.6214360e+01 8.84e-01 1.47e-06  -9.0 8.86e-01    -  1.00e+00 1.00e+00h  1
iter    objective    inf_pr   inf_du lg(mu)  ||d||  lg(rg) alpha_du alpha_pr  ls
  60r 3.6214360e+01 8.84e-01 1.58e-06  -9.0 6.24e+00    -  1.00e+00 1.00e+00h  1
  61r 3.6214360e+01 8.84e-01 5.20e-06  -9.0 4.66e-01    -  1.00e+00 1.00e+00h  1
  62r 3.6214360e+01 8.84e-01 9.20e-07  -9.0 4.07e-01    -  1.00e+00 1.00e+00h  1
  63r 3.6214360e+01 8.84e-01 1.18e-05  -9.0 8.85e-01    -  1.00e+00 1.00e+00h  1
  64r 3.6214360e+01 8.84e-01 4.66e-06  -9.0 1.19e-01    -  1.00e+00 1.00e+00h  1
  65r 3.6214360e+01 8.84e-01 5.42e-05  -9.0 1.07e+00    -  1.00e+00 1.00e+00h  1
  66r 3.6214360e+01 8.84e-01 2.18e-04  -9.0 5.75e+00    -  1.00e+00 1.00e+00h  1
  67r 3.6214360e+01 8.84e-01 4.07e-06  -9.0 2.21e+00    -  1.00e+00 1.00e+00h  1
  68r 3.6214360e+01 8.84e-01 8.95e-07  -9.0 1.62e-02    -  1.00e+00 1.00e+00h  1
  69r 3.6214360e+01 8.84e-01 4.56e-06  -9.0 5.40e-02    -  1.00e+00 1.00e+00h  1
iter    objective    inf_pr   inf_du lg(mu)  ||d||  lg(rg) alpha_du alpha_pr  ls
  70r 3.6214360e+01 8.84e-01 9.32e-06  -9.0 2.78e-01    -  1.00e+00 1.00e+00h  1
  71r 3.6214360e+01 8.84e-01 9.82e-06  -9.0 8.21e-02    -  1.00e+00 1.00e+00h  1
  72r 3.6214360e+01 8.84e-01 3.95e-06  -9.0 7.23e-02    -  1.00e+00 1.00e+00h  1
  73r 3.6214360e+01 8.84e-01 3.92e-06  -9.0 3.39e-02    -  1.00e+00 1.00e+00h  1
  74r 3.6214360e+01 8.84e-01 2.47e-06  -9.0 1.15e-02    -  1.00e+00 1.00e+00h  1
  75r 3.6214360e+01 8.84e-01 2.21e-06  -9.0 7.48e-03    -  1.00e+00 1.00e+00h  1
  76r 3.6214360e+01 8.84e-01 2.25e-06  -9.0 9.42e-03    -  1.00e+00 1.00e+00h  1
  77r 3.6214360e+01 8.84e-01 1.77e-06  -9.0 1.31e-02    -  1.00e+00 1.00e+00h  1
  78r 3.6214360e+01 8.84e-01 1.24e-06  -9.0 1.26e-02    -  1.00e+00 1.00e+00h  1

Number of Iterations....: 78

                                   (scaled)                 (unscaled)
Objective...............:   3.6214360351189114e+01    3.6214360351189114e+01
Dual infeasibility......:   1.7899998093244083e+00    1.7899998093244083e+00
Constraint violation....:   8.8411183601388899e-01    8.8411183601388899e-01
Variable bound violation:   0.0000000000000000e+00    0.0000000000000000e+00
Complementarity.........:   1.0000155309438236e-09    1.0000155309438236e-09
Overall NLP error.......:   1.1172026655357103e+00    1.7899998093244083e+00


Number of objective function evaluations             = 129
Number of objective gradient evaluations             = 35
Number of equality constraint evaluations            = 0
Number of inequality constraint evaluations          = 129
Number of equality constraint Jacobian evaluations   = 0
Number of inequality constraint Jacobian evaluations = 85
Number of Lagrangian Hessian evaluations             = 0
Total seconds in IPOPT                               = 0.211

EXIT: Converged to a point of local infeasibility. Problem may be infeasible.
